DIMACS2
10 65 94 151 104 150 118 111 36 38 134
p edge 160 667
e 0 145 2.0
e 0 85 1.0
e 0 125 2.0
e 0 107 2.0
e 1 146 2.0
e 1 58 1.0
e 1 33 1.0
e 1 108 2.0
e 2 11 2.0
e 2 64 2.0
e 2 103 2.0
e 2 107 2.0
e 3 4 1.0
e 3 94 15.0
e 3 117 2.0
e 3 140 1.0
e 4 137 2.0
e 4 59 1.0
e 4 91 2.0
e 4 78 1.0
e 5 127 1.0
e 5 51 1.0
e 5 120 1.0
e 5 90 1.0
e 6 134 8.0
e 6 138 1.0
e 6 146 2.0
e 6 57 1.0
e 7 111 35.0
e 7 0 3.0
e 7 41 1.0
e 7 136 1.0
e 8 148 1.0
e 8 157 1.0
e 8 90 1.0
e 8 94 24.0
e 9 35 1.0
e 9 90 1.0
e 9 94 12.0
e 9 14 1.0
e 10 115 3.0
e 10 100 1.0
e 10 155 1.0
e 10 36 8.0
e 11 44 2.0
e 11 113 1.0
e 11 46 1.0
e 11 126 1.0
e 12 58 2.0
e 12 145 3.0
e 12 17 6.0
e 12 142 1.0
e 13 38 14.0
e 13 17 2.0
e 13 135 1.0
e 13 92 2.0
e 14 76 1.0
e 14 29 1.0
e 14 155 2.0
e 14 65 13.0
e 15 80 1.0
e 15 8 2.0
e 15 75 1.0
e 15 156 2.0
e 16 90 1.0
e 16 33 1.0
e 16 137 1.0
e 16 127 1.0
e 17 131 2.0
e 17 60 1.0
e 17 58 1.0
e 17 67 2.0
e 18 136 1.0
e 18 158 1.0
e 18 39 1.0
e 18 149 1.0
e 19 7 1.0
e 19 116 1.0
e 19 34 2.0
e 19 98 2.0
e 20 32 1.0
e 20 140 2.0
e 20 90 1.0
e 20 114 3.0
e 21 77 1.0
e 21 90 1.0
e 21 85 1.0
e 21 95 1.0
e 22 73 1.0
e 22 18 1.0
e 22 81 1.0
e 22 127 1.0
e 23 153 1.0
e 23 130 1.0
e 23 152 1.0
e 23 56 1.0
e 24 33 1.0
e 24 56 1.0
e 24 52 1.0
e 24 47 1.0
e 25 132 1.0
e 25 26 3.0
e 25 88 1.0
e 25 65 6.0
e 26 22 1.0
e 26 65 33.0
e 26 29 2.0
e 27 125 1.0
e 27 5 1.0
e 27 60 1.0
e 27 76 1.0
e 28 109 2.0
e 28 87 1.0
e 28 40 1.0
e 28 72 1.0
e 29 41 1.0
e 29 143 1.0
e 29 116 2.0
e 30 137 1.0
e 30 71 1.0
e 30 33 1.0
e 30 8 2.0
e 31 45 1.0
e 31 10 1.0
e 31 69 1.0
e 31 6 3.0
e 32 113 1.0
e 32 138 1.0
e 32 123 3.0
e 32 127 2.0
e 33 152 1.0
e 33 122 1.0
e 33 17 1.0
e 33 27 1.0
e 34 53 2.0
e 34 82 1.0
e 34 49 1.0
e 34 67 2.0
e 35 137 1.0
e 35 135 1.0
e 35 28 3.0
e 35 112 1.0
e 36 155 3.0
e 36 34 5.0
e 36 108 28.0
e 36 67 13.0
e 37 141 1.0
e 37 127 1.0
e 37 106 1.0
e 37 1 1.0
e 38 137 25.0
e 38 97 39.0
e 38 147 4.0
e 38 125 32.0
e 38 134 28.0
e 38 36 41.0
e 38 101 3.0
e 38 65 11.0
e 38 94 49.0
e 38 104 47.0
e 38 150 46.0
e 38 111 33.0
e 39 100 1.0
e 39 143 1.0
e 39 83 2.0
e 39 158 1.0
e 40 115 2.0
e 40 8 2.0
e 40 156 1.0
e 40 106 1.0
e 41 138 1.0
e 41 50 1.0
e 41 149 2.0
e 41 17 1.0
e 42 108 1.0
e 42 156 1.0
e 42 104 9.0
e 42 76 2.0
e 43 116 2.0
e 43 53 2.0
e 43 40 1.0
e 43 109 1.0
e 44 62 2.0
e 44 155 1.0
e 44 150 3.0
e 44 141 1.0
e 45 34 1.0
e 45 157 2.0
e 45 7 1.0
e 45 151 49.0
e 46 78 1.0
e 46 154 1.0
e 46 28 1.0
e 46 82 1.0
e 47 106 1.0
e 47 69 1.0
e 47 16 1.0
e 47 116 1.0
e 48 6 1.0
e 48 95 2.0
e 48 147 1.0
e 48 36 24.0
e 49 66 2.0
e 49 143 1.0
e 49 126 1.0
e 49 43 1.0
e 50 71 1.0
e 50 146 1.0
e 50 14 1.0
e 50 155 2.0
e 51 147 1.0
e 51 125 1.0
e 51 79 2.0
e 51 7 3.0
e 52 82 1.0
e 52 157 1.0
e 52 44 1.0
e 52 62 1.0
e 53 65 14.0
e 53 49 1.0
e 53 0 1.0
e 53 129 1.0
e 54 38 39.0
e 54 112 1.0
e 54 139 1.0
e 54 49 3.0
e 55 56 1.0
e 55 23 2.0
e 55 0 1.0
e 55 124 1.0
e 56 12 5.0
e 56 60 1.0
e 56 158 1.0
e 57 51 1.0
e 57 79 1.0
e 57 92 1.0
e 57 64 2.0
e 58 25 1.0
e 58 82 1.0
e 58 135 1.0
e 58 144 1.0
e 59 102 1.0
e 59 130 1.0
e 59 79 1.0
e 59 158 1.0
e 60 96 1.0
e 60 41 1.0
e 60 8 2.0
e 61 34 1.0
e 61 104 9.0
e 61 63 2.0
e 61 75 1.0
e 62 90 1.0
e 62 81 1.0
e 62 34 1.0
e 62 153 1.0
e 63 109 1.0
e 63 124 1.0
e 63 90 1.0
e 63 95 1.0
e 64 132 2.0
e 64 136 1.0
e 64 16 1.0
e 64 13 3.0
e 65 98 6.0
e 65 136 14.0
e 65 149 27.0
e 65 103 37.0
e 65 36 49.0
e 65 54 30.0
e 65 94 40.0
e 65 111 15.0
e 65 104 40.0
e 66 120 1.0
e 66 128 1.0
e 66 46 1.0
e 66 30 1.0
e 67 85 1.0
e 67 62 2.0
e 67 99 1.0
e 67 14 3.0
e 68 139 2.0
e 68 33 1.0
e 68 22 1.0
e 68 156 1.0
e 69 3 1.0
e 69 85 1.0
e 69 28 1.0
e 69 49 3.0
e 70 136 1.0
e 70 3 2.0
e 70 47 1.0
e 70 19 1.0
e 71 151 17.0
e 71 20 1.0
e 71 119 1.0
e 71 65 23.0
e 72 21 1.0
e 72 45 1.0
e 72 108 2.0
e 72 58 1.0
e 73 109 1.0
e 73 37 1.0
e 73 56 1.0
e 73 96 1.0
e 74 122 1.0
e 74 41 1.0
e 74 67 1.0
e 74 125 1.0
e 75 103 3.0
e 75 5 2.0
e 75 18 2.0
e 75 65 26.0
e 76 58 1.0
e 76 70 1.0
e 76 2 1.0
e 76 145 1.0
e 77 36 9.0
e 77 107 1.0
e 77 53 1.0
e 77 50 2.0
e 78 120 1.0
e 78 113 1.0
e 78 63 1.0
e 78 60 1.0
e 79 125 1.0
e 79 1 2.0
e 79 126 1.0
e 79 36 42.0
e 80 21 1.0
e 80 126 1.0
e 80 119 3.0
e 80 105 1.0
e 81 139 2.0
e 81 29 1.0
e 81 113 1.0
e 81 147 1.0
e 82 40 1.0
e 82 76 1.0
e 82 93 1.0
e 82 48 1.0
e 83 45 1.0
e 83 129 1.0
e 83 76 1.0
e 83 115 1.0
e 84 57 1.0
e 84 98 1.0
e 84 2 1.0
e 84 135 1.0
e 85 92 1.0
e 85 125 2.0
e 85 130 1.0
e 85 126 2.0
e 86 66 1.0
e 86 31 1.0
e 86 29 1.0
e 86 19 1.0
e 87 98 2.0
e 87 127 1.0
e 87 145 1.0
e 87 89 1.0
e 88 28 1.0
e 88 87 2.0
e 88 150 19.0
e 88 128 1.0
e 89 92 1.0
e 89 83 1.0
e 89 50 1.0
e 89 25 1.0
e 90 99 2.0
e 90 95 1.0
e 90 107 1.0
e 90 106 1.0
e 91 133 1.0
e 91 57 2.0
e 91 141 1.0
e 91 13 2.0
e 92 144 1.0
e 92 17 1.0
e 92 8 2.0
e 92 131 1.0
e 93 19 1.0
e 93 39 1.0
e 93 41 1.0
e 93 34 1.0
e 94 59 16.0
e 94 85 11.0
e 94 57 34.0
e 94 2 9.0
e 94 111 10.0
e 94 104 38.0
e 94 118 33.0
e 94 134 12.0
e 94 150 11.0
e 95 86 1.0
e 95 71 1.0
e 95 87 1.0
e 95 6 1.0
e 96 36 2.0
e 96 38 35.0
e 96 149 2.0
e 96 154 1.0
e 97 69 1.0
e 97 123 1.0
e 97 158 1.0
e 97 106 1.0
e 98 103 1.0
e 98 15 1.0
e 98 141 1.0
e 98 124 1.0
e 99 149 1.0
e 99 111 49.0
e 99 53 1.0
e 99 9 1.0
e 100 50 1.0
e 100 93 1.0
e 100 26 1.0
e 100 18 1.0
e 101 20 1.0
e 101 139 1.0
e 101 132 2.0
e 101 154 1.0
e 102 139 1.0
e 102 79 1.0
e 102 133 1.0
e 103 100 1.0
e 103 68 1.0
e 103 156 1.0
e 104 114 40.0
e 104 133 42.0
e 104 111 37.0
e 104 137 1.0
e 104 118 7.0
e 104 134 10.0
e 104 150 44.0
e 104 151 2.0
e 105 107 2.0
e 105 17 1.0
e 105 115 1.0
e 105 98 1.0
e 106 34 1.0
e 106 105 1.0
e 106 91 1.0
e 107 152 1.0
e 107 13 3.0
e 107 56 1.0
e 107 87 1.0
e 108 46 1.0
e 108 62 1.0
e 108 112 2.0
e 108 68 1.0
e 109 35 1.0
e 109 22 1.0
e 109 45 2.0
e 109 92 1.0
e 110 82 1.0
e 110 149 1.0
e 110 64 1.0
e 110 87 1.0
e 111 125 9.0
e 111 22 31.0
e 111 144 28.0
e 111 150 27.0
e 111 118 19.0
e 111 134 44.0
e 111 151 44.0
e 112 65 12.0
e 112 119 3.0
e 112 68 3.0
e 113 108 1.0
e 113 24 1.0
e 113 131 1.0
e 113 121 1.0
e 114 131 1.0
e 114 1 1.0
e 114 95 1.0
e 114 10 2.0
e 115 104 5.0
e 115 1 1.0
e 115 133 2.0
e 115 143 1.0
e 116 56 1.0
e 116 120 1.0
e 116 115 1.0
e 116 110 1.0
e 117 152 2.0
e 117 141 1.0
e 117 111 23.0
e 117 77 1.0
e 118 125 20.0
e 118 22 33.0
e 118 127 23.0
e 118 12 15.0
e 118 38 23.0
e 118 134 45.0
e 118 65 14.0
e 118 150 46.0
e 118 151 31.0
e 119 36 36.0
e 119 156 1.0
e 119 8 2.0
e 119 11 1.0
e 120 34 1.0
e 120 88 2.0
e 120 146 2.0
e 120 92 1.0
e 121 1 1.0
e 121 156 1.0
e 121 104 35.0
e 121 75 1.0
e 122 63 1.0
e 122 94 49.0
e 122 5 1.0
e 122 36 28.0
e 123 48 1.0
e 123 72 1.0
e 123 30 1.0
e 123 100 1.0
e 124 153 1.0
e 124 32 1.0
e 124 35 1.0
e 124 128 1.0
e 125 148 1.0
e 125 36 19.0
e 125 62 1.0
e 126 21 1.0
e 126 20 1.0
e 126 97 1.0
e 126 23 1.0
e 127 36 3.0
e 127 3 1.0
e 127 60 1.0
e 127 20 1.0
e 128 96 1.0
e 128 25 1.0
e 128 122 1.0
e 128 83 1.0
e 129 55 1.0
e 129 68 1.0
e 129 103 1.0
e 129 49 1.0
e 130 5 1.0
e 130 71 1.0
e 130 117 1.0
e 130 106 1.0
e 131 151 33.0
e 131 132 1.0
e 131 154 1.0
e 131 142 1.0
e 132 49 1.0
e 132 145 3.0
e 132 94 8.0
e 132 7 2.0
e 133 36 28.0
e 133 118 41.0
e 133 136 2.0
e 133 103 1.0
e 134 158 17.0
e 134 96 36.0
e 134 25 48.0
e 134 49 25.0
e 134 65 6.0
e 134 150 39.0
e 134 151 34.0
e 135 36 20.0
e 135 111 11.0
e 135 20 1.0
e 135 142 1.0
e 136 110 1.0
e 136 132 1.0
e 136 78 3.0
e 137 83 1.0
e 137 13 1.0
e 137 76 1.0
e 137 129 1.0
e 138 140 2.0
e 138 17 1.0
e 138 58 1.0
e 138 96 1.0
e 139 60 2.0
e 139 148 3.0
e 139 20 1.0
e 139 76 2.0
e 140 99 2.0
e 140 102 1.0
e 140 43 1.0
e 140 94 17.0
e 141 46 1.0
e 141 83 1.0
e 141 100 1.0
e 141 17 1.0
e 142 76 1.0
e 142 157 1.0
e 142 147 1.0
e 142 123 1.0
e 143 122 1.0
e 143 55 1.0
e 143 43 1.0
e 143 16 1.0
e 144 34 2.0
e 144 129 1.0
e 144 16 1.0
e 144 79 1.0
e 145 62 1.0
e 145 6 2.0
e 145 149 1.0
e 145 125 1.0
e 146 42 1.0
e 146 20 1.0
e 146 3 1.0
e 146 36 24.0
e 147 60 1.0
e 147 17 1.0
e 147 135 1.0
e 147 36 32.0
e 148 38 35.0
e 148 109 1.0
e 148 82 2.0
e 148 120 3.0
e 149 148 1.0
e 149 93 1.0
e 149 66 1.0
e 149 46 1.0
e 150 32 17.0
e 150 0 25.0
e 150 105 42.0
e 150 97 34.0
e 150 151 33.0
e 150 65 37.0
e 151 84 31.0
e 151 4 46.0
e 151 103 44.0
e 151 15 41.0
e 151 38 29.0
e 151 94 9.0
e 152 128 1.0
e 152 46 1.0
e 152 48 1.0
e 152 132 1.0
e 153 84 1.0
e 153 43 1.0
e 153 14 1.0
e 153 155 1.0
e 154 83 1.0
e 154 106 1.0
e 154 136 2.0
e 154 121 1.0
e 155 98 1.0
e 155 61 3.0
e 155 122 1.0
e 155 85 2.0
e 156 34 2.0
e 156 66 1.0
e 156 5 1.0
e 156 95 1.0
e 157 36 21.0
e 157 38 44.0
e 157 31 1.0
e 157 93 1.0
e 158 108 1.0
e 158 68 3.0
e 158 73 1.0
e 158 14 1.0
e 159 103 1.0
e 159 131 1.0
e 159 68 1.0
e 159 46 1.0
